rehearsal = [[1,0,1,0,1,0,1,1,1,1], [1,1,1,1,1,0,0,1,0,1], [1,1,0,1,1,1,0,1,0,1], [1,1,1,0,1,1,0,1,1,1], [1,1,1,1,1,1,1,1,1,1], [0,1,0,0,1,1,1,1,1,1], [1,1,1,1,1,1,0,0,0,1], [1,0,1,1,0,1,0,0,0,1], [0,0,1,0,0,0,0,0,1,0], [1,1,0,0,1,0,0,0,1,1]];
permutations = [7,9,8,3,1,5,10,2,6,4];